(set-info :smt-lib-version 2.6)
(set-logic QF_NIA)
(set-info :source |
Generated by: Cristina Borralleras, Daniel Larraz, Albert Oliveras, Enric Rodriguez-Carbonell, Albert Rubio
Generated on: 2017-04-27
Generator: VeryMax
Application: Termination proving
Target solver: barcelogic
|)
(set-info :license "https://creativecommons.org/licenses/by/4.0/")
(set-info :category "industrial")
(set-info :status sat)
(declare-fun Nl2main_i1 () Int)
(declare-fun Nl2main_up1 () Int)
(declare-fun Nl2main_i2 () Int)
(declare-fun Nl2main_up2 () Int)
(declare-fun lam0n0 () Int)
(declare-fun lam0n1 () Int)
(declare-fun lam0n3 () Int)
(declare-fun lam0n4 () Int)
(declare-fun lam0n2 () Int)
(declare-fun Nl2CT1 () Int)
(declare-fun Nl2CT2 () Int)
(declare-fun lam1n0 () Int)
(declare-fun lam1n1 () Int)
(declare-fun lam1n3 () Int)
(declare-fun lam1n4 () Int)
(declare-fun lam1n2 () Int)
(declare-fun lam2n0 () Int)
(declare-fun lam2n1 () Int)
(declare-fun lam2n3 () Int)
(declare-fun lam2n4 () Int)
(declare-fun lam2n2 () Int)
(declare-fun lam3n0 () Int)
(declare-fun lam3n1 () Int)
(declare-fun lam3n3 () Int)
(declare-fun lam3n4 () Int)
(declare-fun lam3n2 () Int)
(declare-fun lam4n0 () Int)
(declare-fun lam4n1 () Int)
(declare-fun lam4n3 () Int)
(declare-fun lam4n4 () Int)
(declare-fun lam4n2 () Int)
(declare-fun lam5n0 () Int)
(declare-fun lam5n1 () Int)
(declare-fun lam5n3 () Int)
(declare-fun lam5n4 () Int)
(declare-fun lam5n2 () Int)
(declare-fun lam6n0 () Int)
(declare-fun lam6n1 () Int)
(declare-fun lam6n2 () Int)
(declare-fun lam6n4 () Int)
(declare-fun lam6n5 () Int)
(declare-fun lam6n3 () Int)
(declare-fun lam7n0 () Int)
(declare-fun lam7n1 () Int)
(declare-fun lam7n2 () Int)
(declare-fun lam7n4 () Int)
(declare-fun lam7n5 () Int)
(declare-fun lam7n3 () Int)
(declare-fun lam8n0 () Int)
(declare-fun lam8n1 () Int)
(declare-fun lam8n2 () Int)
(declare-fun lam8n4 () Int)
(declare-fun lam8n5 () Int)
(declare-fun lam8n3 () Int)
(declare-fun lam9n0 () Int)
(declare-fun lam9n1 () Int)
(declare-fun lam9n2 () Int)
(declare-fun lam9n3 () Int)
(declare-fun lam9n4 () Int)
(declare-fun lam9n5 () Int)
(declare-fun lam10n0 () Int)
(declare-fun lam10n1 () Int)
(declare-fun lam10n2 () Int)
(declare-fun lam10n3 () Int)
(declare-fun lam10n4 () Int)
(declare-fun lam10n5 () Int)
(declare-fun lam11n0 () Int)
(declare-fun lam11n1 () Int)
(declare-fun lam11n2 () Int)
(declare-fun lam11n3 () Int)
(declare-fun lam11n4 () Int)
(declare-fun lam11n5 () Int)
(declare-fun lam12n0 () Int)
(declare-fun lam12n1 () Int)
(declare-fun lam12n3 () Int)
(declare-fun lam12n4 () Int)
(declare-fun lam12n2 () Int)
(declare-fun lam13n0 () Int)
(declare-fun lam13n1 () Int)
(declare-fun lam13n3 () Int)
(declare-fun lam13n4 () Int)
(declare-fun lam13n2 () Int)
(declare-fun lam14n0 () Int)
(declare-fun lam14n1 () Int)
(declare-fun lam14n3 () Int)
(declare-fun lam14n4 () Int)
(declare-fun lam14n2 () Int)
(declare-fun lam15n0 () Int)
(declare-fun lam15n1 () Int)
(declare-fun lam15n2 () Int)
(declare-fun lam15n3 () Int)
(declare-fun lam15n4 () Int)
(declare-fun lam16n0 () Int)
(declare-fun lam16n1 () Int)
(declare-fun lam16n2 () Int)
(declare-fun lam16n3 () Int)
(declare-fun lam16n4 () Int)
(declare-fun lam17n0 () Int)
(declare-fun lam17n1 () Int)
(declare-fun lam17n2 () Int)
(declare-fun lam17n3 () Int)
(declare-fun lam17n4 () Int)
(declare-fun lam18n0 () Int)
(declare-fun lam18n1 () Int)
(declare-fun lam18n2 () Int)
(declare-fun lam18n3 () Int)
(declare-fun lam19n0 () Int)
(declare-fun lam19n1 () Int)
(declare-fun lam19n2 () Int)
(declare-fun lam19n3 () Int)
(declare-fun main_i () Int)
(declare-fun main_up () Int)
(declare-fun undef2 () Int)
(declare-fun lam23n0 () Int)
(declare-fun lam23n1 () Int)
(declare-fun lam23n3 () Int)
(declare-fun lam23n4 () Int)
(declare-fun lam23n2 () Int)
(declare-fun RFN1_CT () Int)
(declare-fun RFN1_main_i () Int)
(declare-fun RFN1_main_up () Int)
(declare-fun lam27n0 () Int)
(declare-fun lam27n1 () Int)
(declare-fun lam27n3 () Int)
(declare-fun lam27n4 () Int)
(declare-fun lam27n2 () Int)
(declare-fun lam31n0 () Int)
(declare-fun lam31n1 () Int)
(declare-fun lam31n2 () Int)
(declare-fun lam31n4 () Int)
(declare-fun lam31n5 () Int)
(declare-fun lam31n3 () Int)
(declare-fun lam35n0 () Int)
(declare-fun lam35n1 () Int)
(declare-fun lam35n2 () Int)
(declare-fun lam35n3 () Int)
(declare-fun lam35n4 () Int)
(declare-fun lam35n5 () Int)
(declare-fun lam39n0 () Int)
(declare-fun lam39n1 () Int)
(declare-fun lam39n3 () Int)
(declare-fun lam39n4 () Int)
(declare-fun lam39n2 () Int)
(declare-fun lam43n0 () Int)
(declare-fun lam43n1 () Int)
(declare-fun lam43n2 () Int)
(declare-fun lam43n3 () Int)
(declare-fun lam43n4 () Int)
(declare-fun lam21n0 () Int)
(declare-fun lam21n1 () Int)
(declare-fun lam21n3 () Int)
(declare-fun lam21n4 () Int)
(declare-fun lam21n2 () Int)
(declare-fun lam22n0 () Int)
(declare-fun lam22n1 () Int)
(declare-fun lam22n3 () Int)
(declare-fun lam22n4 () Int)
(declare-fun lam22n2 () Int)
(declare-fun lam25n0 () Int)
(declare-fun lam25n1 () Int)
(declare-fun lam25n3 () Int)
(declare-fun lam25n4 () Int)
(declare-fun lam25n2 () Int)
(declare-fun lam26n0 () Int)
(declare-fun lam26n1 () Int)
(declare-fun lam26n3 () Int)
(declare-fun lam26n4 () Int)
(declare-fun lam26n2 () Int)
(declare-fun lam29n0 () Int)
(declare-fun lam29n1 () Int)
(declare-fun lam29n2 () Int)
(declare-fun lam29n4 () Int)
(declare-fun lam29n5 () Int)
(declare-fun lam29n3 () Int)
(declare-fun lam30n0 () Int)
(declare-fun lam30n1 () Int)
(declare-fun lam30n2 () Int)
(declare-fun lam30n4 () Int)
(declare-fun lam30n5 () Int)
(declare-fun lam30n3 () Int)
(declare-fun lam33n0 () Int)
(declare-fun lam33n1 () Int)
(declare-fun lam33n2 () Int)
(declare-fun lam33n3 () Int)
(declare-fun lam33n4 () Int)
(declare-fun lam33n5 () Int)
(declare-fun lam34n0 () Int)
(declare-fun lam34n1 () Int)
(declare-fun lam34n2 () Int)
(declare-fun lam34n3 () Int)
(declare-fun lam34n4 () Int)
(declare-fun lam34n5 () Int)
(declare-fun lam37n0 () Int)
(declare-fun lam37n1 () Int)
(declare-fun lam37n3 () Int)
(declare-fun lam37n4 () Int)
(declare-fun lam37n2 () Int)
(declare-fun lam38n0 () Int)
(declare-fun lam38n1 () Int)
(declare-fun lam38n3 () Int)
(declare-fun lam38n4 () Int)
(declare-fun lam38n2 () Int)
(declare-fun lam41n0 () Int)
(declare-fun lam41n1 () Int)
(declare-fun lam41n2 () Int)
(declare-fun lam41n3 () Int)
(declare-fun lam41n4 () Int)
(declare-fun lam42n0 () Int)
(declare-fun lam42n1 () Int)
(declare-fun lam42n2 () Int)
(declare-fun lam42n3 () Int)
(declare-fun lam42n4 () Int)
(declare-fun lam20n0 () Int)
(declare-fun lam20n1 () Int)
(declare-fun lam20n3 () Int)
(declare-fun lam20n4 () Int)
(declare-fun lam20n2 () Int)
(declare-fun lam24n0 () Int)
(declare-fun lam24n1 () Int)
(declare-fun lam24n3 () Int)
(declare-fun lam24n4 () Int)
(declare-fun lam24n2 () Int)
(declare-fun lam28n0 () Int)
(declare-fun lam28n1 () Int)
(declare-fun lam28n2 () Int)
(declare-fun lam28n4 () Int)
(declare-fun lam28n5 () Int)
(declare-fun lam28n3 () Int)
(declare-fun lam32n0 () Int)
(declare-fun lam32n1 () Int)
(declare-fun lam32n2 () Int)
(declare-fun lam32n3 () Int)
(declare-fun lam32n4 () Int)
(declare-fun lam32n5 () Int)
(declare-fun lam36n0 () Int)
(declare-fun lam36n1 () Int)
(declare-fun lam36n3 () Int)
(declare-fun lam36n4 () Int)
(declare-fun lam36n2 () Int)
(declare-fun lam40n0 () Int)
(declare-fun lam40n1 () Int)
(declare-fun lam40n2 () Int)
(declare-fun lam40n3 () Int)
(declare-fun lam40n4 () Int)
(assert ( and ( <= ( - 1 ) Nl2main_i1 ) ( <= Nl2main_i1 1 ) ( <= ( - 1 ) Nl2main_up1 ) ( <= Nl2main_up1 1 ) ( <= ( - 1 ) Nl2main_i2 ) ( <= Nl2main_i2 1 ) ( <= ( - 1 ) Nl2main_up2 ) ( <= Nl2main_up2 1 ) ))
(assert ( or ( and ( >= lam0n0 0 ) ( >= lam0n1 0 ) ( >= lam0n3 0 ) ( >= lam0n4 0 ) ( > ( + ( * ( - 1 ) lam0n1 ) ( * ( - 1 ) lam0n2 ) ( * Nl2CT1 lam0n3 ) ( * Nl2CT2 lam0n4 ) ( - 1 ) ) 0 ) ( = ( + ( * ( - 1 ) lam0n0 ) ( * 1 lam0n2 ) ( * Nl2main_i1 lam0n3 ) ( * Nl2main_i2 lam0n4 ) ) 0 ) ( = ( + ( * 1 lam0n0 ) ( * 1 lam0n1 ) ( * Nl2main_up1 lam0n3 ) ( * Nl2main_up2 lam0n4 ) ) 0 ) ) ( and ( >= lam1n0 0 ) ( >= lam1n1 0 ) ( >= lam1n3 0 ) ( >= lam1n4 0 ) ( > ( + ( * ( - 1 ) lam1n1 ) ( * ( - 1 ) lam1n2 ) ( * Nl2CT1 lam1n3 ) ( * Nl2CT2 lam1n4 ) ( - 1 ( + ( + Nl2CT1 ( * Nl2main_i1 1 ) ) ( * Nl2main_up1 1 ) ) ) ) 0 ) ( = ( + ( * ( - 1 ) lam1n0 ) ( * 1 lam1n2 ) ( * Nl2main_i1 lam1n3 ) ( * Nl2main_i2 lam1n4 ) ( - ( + 0 ( * Nl2main_i1 1 ) ) ) ) 0 ) ( = ( + ( * 1 lam1n0 ) ( * 1 lam1n1 ) ( * Nl2main_up1 lam1n3 ) ( * Nl2main_up2 lam1n4 ) ) 0 ) ) ))
(assert ( or ( and ( >= lam0n0 0 ) ( >= lam0n1 0 ) ( >= lam0n3 0 ) ( >= lam0n4 0 ) ( > ( + ( * ( - 1 ) lam0n1 ) ( * ( - 1 ) lam0n2 ) ( * Nl2CT1 lam0n3 ) ( * Nl2CT2 lam0n4 ) ( - 1 ) ) 0 ) ( = ( + ( * ( - 1 ) lam0n0 ) ( * 1 lam0n2 ) ( * Nl2main_i1 lam0n3 ) ( * Nl2main_i2 lam0n4 ) ) 0 ) ( = ( + ( * 1 lam0n0 ) ( * 1 lam0n1 ) ( * Nl2main_up1 lam0n3 ) ( * Nl2main_up2 lam0n4 ) ) 0 ) ) ( and ( >= lam2n0 0 ) ( >= lam2n1 0 ) ( >= lam2n3 0 ) ( >= lam2n4 0 ) ( > ( + ( * ( - 1 ) lam2n1 ) ( * ( - 1 ) lam2n2 ) ( * Nl2CT1 lam2n3 ) ( * Nl2CT2 lam2n4 ) ( - 1 ( + ( + Nl2CT2 ( * Nl2main_i2 1 ) ) ( * Nl2main_up2 1 ) ) ) ) 0 ) ( = ( + ( * ( - 1 ) lam2n0 ) ( * 1 lam2n2 ) ( * Nl2main_i1 lam2n3 ) ( * Nl2main_i2 lam2n4 ) ( - ( + 0 ( * Nl2main_i2 1 ) ) ) ) 0 ) ( = ( + ( * 1 lam2n0 ) ( * 1 lam2n1 ) ( * Nl2main_up1 lam2n3 ) ( * Nl2main_up2 lam2n4 ) ) 0 ) ) ))
(assert ( or ( and ( >= lam3n0 0 ) ( >= lam3n1 0 ) ( >= lam3n3 0 ) ( >= lam3n4 0 ) ( > ( + ( * ( - 1 ) lam3n1 ) ( * ( - 10 ) lam3n2 ) ( * Nl2CT1 lam3n3 ) ( * Nl2CT2 lam3n4 ) ( - 1 ) ) 0 ) ( = ( + ( * ( - 1 ) lam3n0 ) ( * 1 lam3n2 ) ( * Nl2main_i1 lam3n3 ) ( * Nl2main_i2 lam3n4 ) ) 0 ) ( = ( + ( * 1 lam3n0 ) ( * 1 lam3n1 ) ( * Nl2main_up1 lam3n3 ) ( * Nl2main_up2 lam3n4 ) ) 0 ) ) ( and ( >= lam4n0 0 ) ( >= lam4n1 0 ) ( >= lam4n3 0 ) ( >= lam4n4 0 ) ( > ( + ( * ( - 1 ) lam4n1 ) ( * ( - 10 ) lam4n2 ) ( * Nl2CT1 lam4n3 ) ( * Nl2CT2 lam4n4 ) ( - 1 ( + ( + Nl2CT1 ( * Nl2main_i1 ( - 1 ) ) ) ( * Nl2main_up1 0 ) ) ) ) 0 ) ( = ( + ( * ( - 1 ) lam4n0 ) ( * 1 lam4n2 ) ( * Nl2main_i1 lam4n3 ) ( * Nl2main_i2 lam4n4 ) ( - ( + 0 ( * Nl2main_i1 1 ) ) ) ) 0 ) ( = ( + ( * 1 lam4n0 ) ( * 1 lam4n1 ) ( * Nl2main_up1 lam4n3 ) ( * Nl2main_up2 lam4n4 ) ) 0 ) ) ))
(assert ( or ( and ( >= lam3n0 0 ) ( >= lam3n1 0 ) ( >= lam3n3 0 ) ( >= lam3n4 0 ) ( > ( + ( * ( - 1 ) lam3n1 ) ( * ( - 10 ) lam3n2 ) ( * Nl2CT1 lam3n3 ) ( * Nl2CT2 lam3n4 ) ( - 1 ) ) 0 ) ( = ( + ( * ( - 1 ) lam3n0 ) ( * 1 lam3n2 ) ( * Nl2main_i1 lam3n3 ) ( * Nl2main_i2 lam3n4 ) ) 0 ) ( = ( + ( * 1 lam3n0 ) ( * 1 lam3n1 ) ( * Nl2main_up1 lam3n3 ) ( * Nl2main_up2 lam3n4 ) ) 0 ) ) ( and ( >= lam5n0 0 ) ( >= lam5n1 0 ) ( >= lam5n3 0 ) ( >= lam5n4 0 ) ( > ( + ( * ( - 1 ) lam5n1 ) ( * ( - 10 ) lam5n2 ) ( * Nl2CT1 lam5n3 ) ( * Nl2CT2 lam5n4 ) ( - 1 ( + ( + Nl2CT2 ( * Nl2main_i2 ( - 1 ) ) ) ( * Nl2main_up2 0 ) ) ) ) 0 ) ( = ( + ( * ( - 1 ) lam5n0 ) ( * 1 lam5n2 ) ( * Nl2main_i1 lam5n3 ) ( * Nl2main_i2 lam5n4 ) ( - ( + 0 ( * Nl2main_i2 1 ) ) ) ) 0 ) ( = ( + ( * 1 lam5n0 ) ( * 1 lam5n1 ) ( * Nl2main_up1 lam5n3 ) ( * Nl2main_up2 lam5n4 ) ) 0 ) ) ))
(assert ( or ( and ( >= lam6n0 0 ) ( >= lam6n1 0 ) ( >= lam6n2 0 ) ( >= lam6n4 0 ) ( >= lam6n5 0 ) ( > ( + ( * ( - 9 ) lam6n1 ) ( * 2 lam6n2 ) ( * ( - 1 ) lam6n3 ) ( * Nl2CT1 lam6n4 ) ( * Nl2CT2 lam6n5 ) ( - 1 ) ) 0 ) ( = ( + ( * ( - 1 ) lam6n0 ) ( * 1 lam6n1 ) ( * ( - 1 ) lam6n2 ) ( * Nl2main_i1 lam6n4 ) ( * Nl2main_i2 lam6n5 ) ) 0 ) ( = ( + ( * 1 lam6n0 ) ( * 1 lam6n3 ) ( * Nl2main_up1 lam6n4 ) ( * Nl2main_up2 lam6n5 ) ) 0 ) ) ( and ( >= lam7n0 0 ) ( >= lam7n1 0 ) ( >= lam7n2 0 ) ( >= lam7n4 0 ) ( >= lam7n5 0 ) ( > ( + ( * ( - 9 ) lam7n1 ) ( * 2 lam7n2 ) ( * ( - 1 ) lam7n3 ) ( * Nl2CT1 lam7n4 ) ( * Nl2CT2 lam7n5 ) ( - 1 ( + Nl2CT1 ( * Nl2main_i1 1 ) ) ) ) 0 ) ( = ( + ( * ( - 1 ) lam7n0 ) ( * 1 lam7n1 ) ( * ( - 1 ) lam7n2 ) ( * Nl2main_i1 lam7n4 ) ( * Nl2main_i2 lam7n5 ) ( - ( + 0 ( * Nl2main_i1 1 ) ) ) ) 0 ) ( = ( + ( * 1 lam7n0 ) ( * 1 lam7n3 ) ( * Nl2main_up1 lam7n4 ) ( * Nl2main_up2 lam7n5 ) ( - ( + 0 Nl2main_up1 ) ) ) 0 ) ) ))
(assert ( or ( and ( >= lam6n0 0 ) ( >= lam6n1 0 ) ( >= lam6n2 0 ) ( >= lam6n4 0 ) ( >= lam6n5 0 ) ( > ( + ( * ( - 9 ) lam6n1 ) ( * 2 lam6n2 ) ( * ( - 1 ) lam6n3 ) ( * Nl2CT1 lam6n4 ) ( * Nl2CT2 lam6n5 ) ( - 1 ) ) 0 ) ( = ( + ( * ( - 1 ) lam6n0 ) ( * 1 lam6n1 ) ( * ( - 1 ) lam6n2 ) ( * Nl2main_i1 lam6n4 ) ( * Nl2main_i2 lam6n5 ) ) 0 ) ( = ( + ( * 1 lam6n0 ) ( * 1 lam6n3 ) ( * Nl2main_up1 lam6n4 ) ( * Nl2main_up2 lam6n5 ) ) 0 ) ) ( and ( >= lam8n0 0 ) ( >= lam8n1 0 ) ( >= lam8n2 0 ) ( >= lam8n4 0 ) ( >= lam8n5 0 ) ( > ( + ( * ( - 9 ) lam8n1 ) ( * 2 lam8n2 ) ( * ( - 1 ) lam8n3 ) ( * Nl2CT1 lam8n4 ) ( * Nl2CT2 lam8n5 ) ( - 1 ( + Nl2CT2 ( * Nl2main_i2 1 ) ) ) ) 0 ) ( = ( + ( * ( - 1 ) lam8n0 ) ( * 1 lam8n1 ) ( * ( - 1 ) lam8n2 ) ( * Nl2main_i1 lam8n4 ) ( * Nl2main_i2 lam8n5 ) ( - ( + 0 ( * Nl2main_i2 1 ) ) ) ) 0 ) ( = ( + ( * 1 lam8n0 ) ( * 1 lam8n3 ) ( * Nl2main_up1 lam8n4 ) ( * Nl2main_up2 lam8n5 ) ( - ( + 0 Nl2main_up2 ) ) ) 0 ) ) ))
(assert ( or ( and ( >= lam9n0 0 ) ( >= lam9n1 0 ) ( >= lam9n2 0 ) ( >= lam9n3 0 ) ( >= lam9n4 0 ) ( >= lam9n5 0 ) ( > ( + ( * ( - 9 ) lam9n2 ) ( * 2 lam9n3 ) ( * Nl2CT1 lam9n4 ) ( * Nl2CT2 lam9n5 ) ( - 1 ) ) 0 ) ( = ( + ( * ( - 1 ) lam9n0 ) ( * 1 lam9n2 ) ( * ( - 1 ) lam9n3 ) ( * Nl2main_i1 lam9n4 ) ( * Nl2main_i2 lam9n5 ) ) 0 ) ( = ( + ( * 1 lam9n0 ) ( * 1 lam9n1 ) ( * Nl2main_up1 lam9n4 ) ( * Nl2main_up2 lam9n5 ) ) 0 ) ) ( and ( >= lam10n0 0 ) ( >= lam10n1 0 ) ( >= lam10n2 0 ) ( >= lam10n3 0 ) ( >= lam10n4 0 ) ( >= lam10n5 0 ) ( > ( + ( * ( - 9 ) lam10n2 ) ( * 2 lam10n3 ) ( * Nl2CT1 lam10n4 ) ( * Nl2CT2 lam10n5 ) ( - 1 ( + Nl2CT1 ( * Nl2main_i1 ( - 1 ) ) ) ) ) 0 ) ( = ( + ( * ( - 1 ) lam10n0 ) ( * 1 lam10n2 ) ( * ( - 1 ) lam10n3 ) ( * Nl2main_i1 lam10n4 ) ( * Nl2main_i2 lam10n5 ) ( - ( + 0 ( * Nl2main_i1 1 ) ) ) ) 0 ) ( = ( + ( * 1 lam10n0 ) ( * 1 lam10n1 ) ( * Nl2main_up1 lam10n4 ) ( * Nl2main_up2 lam10n5 ) ( - ( + 0 Nl2main_up1 ) ) ) 0 ) ) ))
(assert ( or ( and ( >= lam9n0 0 ) ( >= lam9n1 0 ) ( >= lam9n2 0 ) ( >= lam9n3 0 ) ( >= lam9n4 0 ) ( >= lam9n5 0 ) ( > ( + ( * ( - 9 ) lam9n2 ) ( * 2 lam9n3 ) ( * Nl2CT1 lam9n4 ) ( * Nl2CT2 lam9n5 ) ( - 1 ) ) 0 ) ( = ( + ( * ( - 1 ) lam9n0 ) ( * 1 lam9n2 ) ( * ( - 1 ) lam9n3 ) ( * Nl2main_i1 lam9n4 ) ( * Nl2main_i2 lam9n5 ) ) 0 ) ( = ( + ( * 1 lam9n0 ) ( * 1 lam9n1 ) ( * Nl2main_up1 lam9n4 ) ( * Nl2main_up2 lam9n5 ) ) 0 ) ) ( and ( >= lam11n0 0 ) ( >= lam11n1 0 ) ( >= lam11n2 0 ) ( >= lam11n3 0 ) ( >= lam11n4 0 ) ( >= lam11n5 0 ) ( > ( + ( * ( - 9 ) lam11n2 ) ( * 2 lam11n3 ) ( * Nl2CT1 lam11n4 ) ( * Nl2CT2 lam11n5 ) ( - 1 ( + Nl2CT2 ( * Nl2main_i2 ( - 1 ) ) ) ) ) 0 ) ( = ( + ( * ( - 1 ) lam11n0 ) ( * 1 lam11n2 ) ( * ( - 1 ) lam11n3 ) ( * Nl2main_i1 lam11n4 ) ( * Nl2main_i2 lam11n5 ) ( - ( + 0 ( * Nl2main_i2 1 ) ) ) ) 0 ) ( = ( + ( * 1 lam11n0 ) ( * 1 lam11n1 ) ( * Nl2main_up1 lam11n4 ) ( * Nl2main_up2 lam11n5 ) ( - ( + 0 Nl2main_up2 ) ) ) 0 ) ) ))
(assert ( or ( and ( >= lam12n0 0 ) ( >= lam12n1 0 ) ( >= lam12n3 0 ) ( >= lam12n4 0 ) ( > ( + ( * 11 lam12n1 ) ( * ( - 1 ) lam12n2 ) ( * Nl2CT1 lam12n3 ) ( * Nl2CT2 lam12n4 ) ( - 1 ) ) 0 ) ( = ( + ( * ( - 1 ) lam12n0 ) ( * ( - 1 ) lam12n1 ) ( * Nl2main_i1 lam12n3 ) ( * Nl2main_i2 lam12n4 ) ) 0 ) ( = ( + ( * 1 lam12n0 ) ( * 1 lam12n2 ) ( * Nl2main_up1 lam12n3 ) ( * Nl2main_up2 lam12n4 ) ) 0 ) ) ( and ( >= lam13n0 0 ) ( >= lam13n1 0 ) ( >= lam13n3 0 ) ( >= lam13n4 0 ) ( > ( + ( * 11 lam13n1 ) ( * ( - 1 ) lam13n2 ) ( * Nl2CT1 lam13n3 ) ( * Nl2CT2 lam13n4 ) ( - 1 ( + Nl2CT1 ( * Nl2main_i1 1 ) ) ) ) 0 ) ( = ( + ( * ( - 1 ) lam13n0 ) ( * ( - 1 ) lam13n1 ) ( * Nl2main_i1 lam13n3 ) ( * Nl2main_i2 lam13n4 ) ( - ( + 0 ( * Nl2main_i1 1 ) ) ) ) 0 ) ( = ( + ( * 1 lam13n0 ) ( * 1 lam13n2 ) ( * Nl2main_up1 lam13n3 ) ( * Nl2main_up2 lam13n4 ) ( - ( + 0 Nl2main_up1 ) ) ) 0 ) ) ))
(assert ( or ( and ( >= lam12n0 0 ) ( >= lam12n1 0 ) ( >= lam12n3 0 ) ( >= lam12n4 0 ) ( > ( + ( * 11 lam12n1 ) ( * ( - 1 ) lam12n2 ) ( * Nl2CT1 lam12n3 ) ( * Nl2CT2 lam12n4 ) ( - 1 ) ) 0 ) ( = ( + ( * ( - 1 ) lam12n0 ) ( * ( - 1 ) lam12n1 ) ( * Nl2main_i1 lam12n3 ) ( * Nl2main_i2 lam12n4 ) ) 0 ) ( = ( + ( * 1 lam12n0 ) ( * 1 lam12n2 ) ( * Nl2main_up1 lam12n3 ) ( * Nl2main_up2 lam12n4 ) ) 0 ) ) ( and ( >= lam14n0 0 ) ( >= lam14n1 0 ) ( >= lam14n3 0 ) ( >= lam14n4 0 ) ( > ( + ( * 11 lam14n1 ) ( * ( - 1 ) lam14n2 ) ( * Nl2CT1 lam14n3 ) ( * Nl2CT2 lam14n4 ) ( - 1 ( + Nl2CT2 ( * Nl2main_i2 1 ) ) ) ) 0 ) ( = ( + ( * ( - 1 ) lam14n0 ) ( * ( - 1 ) lam14n1 ) ( * Nl2main_i1 lam14n3 ) ( * Nl2main_i2 lam14n4 ) ( - ( + 0 ( * Nl2main_i2 1 ) ) ) ) 0 ) ( = ( + ( * 1 lam14n0 ) ( * 1 lam14n2 ) ( * Nl2main_up1 lam14n3 ) ( * Nl2main_up2 lam14n4 ) ( - ( + 0 Nl2main_up2 ) ) ) 0 ) ) ))
(assert ( or ( and ( >= lam15n0 0 ) ( >= lam15n1 0 ) ( >= lam15n2 0 ) ( >= lam15n3 0 ) ( >= lam15n4 0 ) ( > ( + ( * 11 lam15n2 ) ( * Nl2CT1 lam15n3 ) ( * Nl2CT2 lam15n4 ) ( - 1 ) ) 0 ) ( = ( + ( * ( - 1 ) lam15n0 ) ( * ( - 1 ) lam15n2 ) ( * Nl2main_i1 lam15n3 ) ( * Nl2main_i2 lam15n4 ) ) 0 ) ( = ( + ( * 1 lam15n0 ) ( * 1 lam15n1 ) ( * Nl2main_up1 lam15n3 ) ( * Nl2main_up2 lam15n4 ) ) 0 ) ) ( and ( >= lam16n0 0 ) ( >= lam16n1 0 ) ( >= lam16n2 0 ) ( >= lam16n3 0 ) ( >= lam16n4 0 ) ( > ( + ( * 11 lam16n2 ) ( * Nl2CT1 lam16n3 ) ( * Nl2CT2 lam16n4 ) ( - 1 ( + Nl2CT1 ( * Nl2main_i1 ( - 1 ) ) ) ) ) 0 ) ( = ( + ( * ( - 1 ) lam16n0 ) ( * ( - 1 ) lam16n2 ) ( * Nl2main_i1 lam16n3 ) ( * Nl2main_i2 lam16n4 ) ( - ( + 0 ( * Nl2main_i1 1 ) ) ) ) 0 ) ( = ( + ( * 1 lam16n0 ) ( * 1 lam16n1 ) ( * Nl2main_up1 lam16n3 ) ( * Nl2main_up2 lam16n4 ) ( - ( + 0 Nl2main_up1 ) ) ) 0 ) ) ))
(assert ( or ( and ( >= lam15n0 0 ) ( >= lam15n1 0 ) ( >= lam15n2 0 ) ( >= lam15n3 0 ) ( >= lam15n4 0 ) ( > ( + ( * 11 lam15n2 ) ( * Nl2CT1 lam15n3 ) ( * Nl2CT2 lam15n4 ) ( - 1 ) ) 0 ) ( = ( + ( * ( - 1 ) lam15n0 ) ( * ( - 1 ) lam15n2 ) ( * Nl2main_i1 lam15n3 ) ( * Nl2main_i2 lam15n4 ) ) 0 ) ( = ( + ( * 1 lam15n0 ) ( * 1 lam15n1 ) ( * Nl2main_up1 lam15n3 ) ( * Nl2main_up2 lam15n4 ) ) 0 ) ) ( and ( >= lam17n0 0 ) ( >= lam17n1 0 ) ( >= lam17n2 0 ) ( >= lam17n3 0 ) ( >= lam17n4 0 ) ( > ( + ( * 11 lam17n2 ) ( * Nl2CT1 lam17n3 ) ( * Nl2CT2 lam17n4 ) ( - 1 ( + Nl2CT2 ( * Nl2main_i2 ( - 1 ) ) ) ) ) 0 ) ( = ( + ( * ( - 1 ) lam17n0 ) ( * ( - 1 ) lam17n2 ) ( * Nl2main_i1 lam17n3 ) ( * Nl2main_i2 lam17n4 ) ( - ( + 0 ( * Nl2main_i2 1 ) ) ) ) 0 ) ( = ( + ( * 1 lam17n0 ) ( * 1 lam17n1 ) ( * Nl2main_up1 lam17n3 ) ( * Nl2main_up2 lam17n4 ) ( - ( + 0 Nl2main_up2 ) ) ) 0 ) ) ))
(assert ( and ( not ( <= ( + 1 main_i ( * ( - 1 ) main_up ) ) 0 ) ) ( not ( <= main_i 0 ) ) ( = ( + main_i ( * ( - 1 ) undef2 ) ) 0 ) ( = main_up 0 ) ( <= ( + Nl2CT1 ( * ( + 0 Nl2main_i1 ) main_i ) ( * ( + 0 Nl2main_up1 ) main_up ) ) 0 ) ( <= ( + Nl2CT2 ( * ( + 0 Nl2main_i2 ) main_i ) ( * ( + 0 Nl2main_up2 ) main_up ) ) 0 ) ))
(assert ( or ( and ( and ( and ( >= lam23n0 0 ) ( >= lam23n1 0 ) ( >= lam23n3 0 ) ( >= lam23n4 0 ) ( > ( + ( * ( - 1 ) lam23n1 ) ( * ( - 1 ) lam23n2 ) ( * Nl2CT1 lam23n3 ) ( * Nl2CT2 lam23n4 ) ( - 1 ( - ( + ( + RFN1_CT ( * RFN1_main_i 1 ) ) ( * RFN1_main_up 1 ) ) RFN1_CT ) ) ) 0 ) ( = ( + ( * ( - 1 ) lam23n0 ) ( * 1 lam23n2 ) ( * Nl2main_i1 lam23n3 ) ( * Nl2main_i2 lam23n4 ) ( - ( - ( + 0 ( * RFN1_main_i 1 ) ) RFN1_main_i ) ) ) 0 ) ( = ( + ( * 1 lam23n0 ) ( * 1 lam23n1 ) ( * Nl2main_up1 lam23n3 ) ( * Nl2main_up2 lam23n4 ) ( - ( - RFN1_main_up ) ) ) 0 ) ) ( and ( >= lam27n0 0 ) ( >= lam27n1 0 ) ( >= lam27n3 0 ) ( >= lam27n4 0 ) ( > ( + ( * ( - 1 ) lam27n1 ) ( * ( - 10 ) lam27n2 ) ( * Nl2CT1 lam27n3 ) ( * Nl2CT2 lam27n4 ) ( - 1 ( - ( + ( + RFN1_CT ( * RFN1_main_i ( - 1 ) ) ) ( * RFN1_main_up 0 ) ) RFN1_CT ) ) ) 0 ) ( = ( + ( * ( - 1 ) lam27n0 ) ( * 1 lam27n2 ) ( * Nl2main_i1 lam27n3 ) ( * Nl2main_i2 lam27n4 ) ( - ( - ( + 0 ( * RFN1_main_i 1 ) ) RFN1_main_i ) ) ) 0 ) ( = ( + ( * 1 lam27n0 ) ( * 1 lam27n1 ) ( * Nl2main_up1 lam27n3 ) ( * Nl2main_up2 lam27n4 ) ( - ( - RFN1_main_up ) ) ) 0 ) ) ( and ( >= lam31n0 0 ) ( >= lam31n1 0 ) ( >= lam31n2 0 ) ( >= lam31n4 0 ) ( >= lam31n5 0 ) ( > ( + ( * ( - 9 ) lam31n1 ) ( * 2 lam31n2 ) ( * ( - 1 ) lam31n3 ) ( * Nl2CT1 lam31n4 ) ( * Nl2CT2 lam31n5 ) ( - 1 ( - ( + RFN1_CT ( * RFN1_main_i 1 ) ) RFN1_CT ) ) ) 0 ) ( = ( + ( * ( - 1 ) lam31n0 ) ( * 1 lam31n1 ) ( * ( - 1 ) lam31n2 ) ( * Nl2main_i1 lam31n4 ) ( * Nl2main_i2 lam31n5 ) ( - ( - ( + 0 ( * RFN1_main_i 1 ) ) RFN1_main_i ) ) ) 0 ) ( = ( + ( * 1 lam31n0 ) ( * 1 lam31n3 ) ( * Nl2main_up1 lam31n4 ) ( * Nl2main_up2 lam31n5 ) ( - ( - ( + 0 RFN1_main_up ) RFN1_main_up ) ) ) 0 ) ) ( and ( >= lam35n0 0 ) ( >= lam35n1 0 ) ( >= lam35n2 0 ) ( >= lam35n3 0 ) ( >= lam35n4 0 ) ( >= lam35n5 0 ) ( > ( + ( * ( - 9 ) lam35n2 ) ( * 2 lam35n3 ) ( * Nl2CT1 lam35n4 ) ( * Nl2CT2 lam35n5 ) ( - 1 ( - ( + RFN1_CT ( * RFN1_main_i ( - 1 ) ) ) RFN1_CT ) ) ) 0 ) ( = ( + ( * ( - 1 ) lam35n0 ) ( * 1 lam35n2 ) ( * ( - 1 ) lam35n3 ) ( * Nl2main_i1 lam35n4 ) ( * Nl2main_i2 lam35n5 ) ( - ( - ( + 0 ( * RFN1_main_i 1 ) ) RFN1_main_i ) ) ) 0 ) ( = ( + ( * 1 lam35n0 ) ( * 1 lam35n1 ) ( * Nl2main_up1 lam35n4 ) ( * Nl2main_up2 lam35n5 ) ( - ( - ( + 0 RFN1_main_up ) RFN1_main_up ) ) ) 0 ) ) ( and ( >= lam39n0 0 ) ( >= lam39n1 0 ) ( >= lam39n3 0 ) ( >= lam39n4 0 ) ( > ( + ( * 11 lam39n1 ) ( * ( - 1 ) lam39n2 ) ( * Nl2CT1 lam39n3 ) ( * Nl2CT2 lam39n4 ) ( - 1 ( - ( + RFN1_CT ( * RFN1_main_i 1 ) ) RFN1_CT ) ) ) 0 ) ( = ( + ( * ( - 1 ) lam39n0 ) ( * ( - 1 ) lam39n1 ) ( * Nl2main_i1 lam39n3 ) ( * Nl2main_i2 lam39n4 ) ( - ( - ( + 0 ( * RFN1_main_i 1 ) ) RFN1_main_i ) ) ) 0 ) ( = ( + ( * 1 lam39n0 ) ( * 1 lam39n2 ) ( * Nl2main_up1 lam39n3 ) ( * Nl2main_up2 lam39n4 ) ( - ( - ( + 0 RFN1_main_up ) RFN1_main_up ) ) ) 0 ) ) ( and ( >= lam43n0 0 ) ( >= lam43n1 0 ) ( >= lam43n2 0 ) ( >= lam43n3 0 ) ( >= lam43n4 0 ) ( > ( + ( * 11 lam43n2 ) ( * Nl2CT1 lam43n3 ) ( * Nl2CT2 lam43n4 ) ( - 1 ( - ( + RFN1_CT ( * RFN1_main_i ( - 1 ) ) ) RFN1_CT ) ) ) 0 ) ( = ( + ( * ( - 1 ) lam43n0 ) ( * ( - 1 ) lam43n2 ) ( * Nl2main_i1 lam43n3 ) ( * Nl2main_i2 lam43n4 ) ( - ( - ( + 0 ( * RFN1_main_i 1 ) ) RFN1_main_i ) ) ) 0 ) ( = ( + ( * 1 lam43n0 ) ( * 1 lam43n1 ) ( * Nl2main_up1 lam43n3 ) ( * Nl2main_up2 lam43n4 ) ( - ( - ( + 0 RFN1_main_up ) RFN1_main_up ) ) ) 0 ) ) ) ( or ( and ( and ( >= lam21n0 0 ) ( >= lam21n1 0 ) ( >= lam21n3 0 ) ( >= lam21n4 0 ) ( > ( + ( * ( - 1 ) lam21n1 ) ( * ( - 1 ) lam21n2 ) ( * Nl2CT1 lam21n3 ) ( * Nl2CT2 lam21n4 ) ( - 1 ( - RFN1_CT ) ) ) 0 ) ( = ( + ( * ( - 1 ) lam21n0 ) ( * 1 lam21n2 ) ( * Nl2main_i1 lam21n3 ) ( * Nl2main_i2 lam21n4 ) ( - ( - RFN1_main_i ) ) ) 0 ) ( = ( + ( * 1 lam21n0 ) ( * 1 lam21n1 ) ( * Nl2main_up1 lam21n3 ) ( * Nl2main_up2 lam21n4 ) ( - ( - RFN1_main_up ) ) ) 0 ) ) ( and ( >= lam22n0 0 ) ( >= lam22n1 0 ) ( >= lam22n3 0 ) ( >= lam22n4 0 ) ( > ( + ( * ( - 1 ) lam22n1 ) ( * ( - 1 ) lam22n2 ) ( * Nl2CT1 lam22n3 ) ( * Nl2CT2 lam22n4 ) ( - 1 ( + ( - ( + ( + RFN1_CT ( * RFN1_main_i 1 ) ) ( * RFN1_main_up 1 ) ) RFN1_CT ) 1 ) ) ) 0 ) ( = ( + ( * ( - 1 ) lam22n0 ) ( * 1 lam22n2 ) ( * Nl2main_i1 lam22n3 ) ( * Nl2main_i2 lam22n4 ) ( - ( - ( + 0 ( * RFN1_main_i 1 ) ) RFN1_main_i ) ) ) 0 ) ( = ( + ( * 1 lam22n0 ) ( * 1 lam22n1 ) ( * Nl2main_up1 lam22n3 ) ( * Nl2main_up2 lam22n4 ) ( - ( - RFN1_main_up ) ) ) 0 ) ) ) ( and ( and ( >= lam25n0 0 ) ( >= lam25n1 0 ) ( >= lam25n3 0 ) ( >= lam25n4 0 ) ( > ( + ( * ( - 1 ) lam25n1 ) ( * ( - 10 ) lam25n2 ) ( * Nl2CT1 lam25n3 ) ( * Nl2CT2 lam25n4 ) ( - 1 ( - RFN1_CT ) ) ) 0 ) ( = ( + ( * ( - 1 ) lam25n0 ) ( * 1 lam25n2 ) ( * Nl2main_i1 lam25n3 ) ( * Nl2main_i2 lam25n4 ) ( - ( - RFN1_main_i ) ) ) 0 ) ( = ( + ( * 1 lam25n0 ) ( * 1 lam25n1 ) ( * Nl2main_up1 lam25n3 ) ( * Nl2main_up2 lam25n4 ) ( - ( - RFN1_main_up ) ) ) 0 ) ) ( and ( >= lam26n0 0 ) ( >= lam26n1 0 ) ( >= lam26n3 0 ) ( >= lam26n4 0 ) ( > ( + ( * ( - 1 ) lam26n1 ) ( * ( - 10 ) lam26n2 ) ( * Nl2CT1 lam26n3 ) ( * Nl2CT2 lam26n4 ) ( - 1 ( + ( - ( + ( + RFN1_CT ( * RFN1_main_i ( - 1 ) ) ) ( * RFN1_main_up 0 ) ) RFN1_CT ) 1 ) ) ) 0 ) ( = ( + ( * ( - 1 ) lam26n0 ) ( * 1 lam26n2 ) ( * Nl2main_i1 lam26n3 ) ( * Nl2main_i2 lam26n4 ) ( - ( - ( + 0 ( * RFN1_main_i 1 ) ) RFN1_main_i ) ) ) 0 ) ( = ( + ( * 1 lam26n0 ) ( * 1 lam26n1 ) ( * Nl2main_up1 lam26n3 ) ( * Nl2main_up2 lam26n4 ) ( - ( - RFN1_main_up ) ) ) 0 ) ) ) ( and ( and ( >= lam29n0 0 ) ( >= lam29n1 0 ) ( >= lam29n2 0 ) ( >= lam29n4 0 ) ( >= lam29n5 0 ) ( > ( + ( * ( - 9 ) lam29n1 ) ( * 2 lam29n2 ) ( * ( - 1 ) lam29n3 ) ( * Nl2CT1 lam29n4 ) ( * Nl2CT2 lam29n5 ) ( - 1 ( - RFN1_CT ) ) ) 0 ) ( = ( + ( * ( - 1 ) lam29n0 ) ( * 1 lam29n1 ) ( * ( - 1 ) lam29n2 ) ( * Nl2main_i1 lam29n4 ) ( * Nl2main_i2 lam29n5 ) ( - ( - RFN1_main_i ) ) ) 0 ) ( = ( + ( * 1 lam29n0 ) ( * 1 lam29n3 ) ( * Nl2main_up1 lam29n4 ) ( * Nl2main_up2 lam29n5 ) ( - ( - RFN1_main_up ) ) ) 0 ) ) ( and ( >= lam30n0 0 ) ( >= lam30n1 0 ) ( >= lam30n2 0 ) ( >= lam30n4 0 ) ( >= lam30n5 0 ) ( > ( + ( * ( - 9 ) lam30n1 ) ( * 2 lam30n2 ) ( * ( - 1 ) lam30n3 ) ( * Nl2CT1 lam30n4 ) ( * Nl2CT2 lam30n5 ) ( - 1 ( + ( - ( + RFN1_CT ( * RFN1_main_i 1 ) ) RFN1_CT ) 1 ) ) ) 0 ) ( = ( + ( * ( - 1 ) lam30n0 ) ( * 1 lam30n1 ) ( * ( - 1 ) lam30n2 ) ( * Nl2main_i1 lam30n4 ) ( * Nl2main_i2 lam30n5 ) ( - ( - ( + 0 ( * RFN1_main_i 1 ) ) RFN1_main_i ) ) ) 0 ) ( = ( + ( * 1 lam30n0 ) ( * 1 lam30n3 ) ( * Nl2main_up1 lam30n4 ) ( * Nl2main_up2 lam30n5 ) ( - ( - ( + 0 RFN1_main_up ) RFN1_main_up ) ) ) 0 ) ) ) ( and ( and ( >= lam33n0 0 ) ( >= lam33n1 0 ) ( >= lam33n2 0 ) ( >= lam33n3 0 ) ( >= lam33n4 0 ) ( >= lam33n5 0 ) ( > ( + ( * ( - 9 ) lam33n2 ) ( * 2 lam33n3 ) ( * Nl2CT1 lam33n4 ) ( * Nl2CT2 lam33n5 ) ( - 1 ( - RFN1_CT ) ) ) 0 ) ( = ( + ( * ( - 1 ) lam33n0 ) ( * 1 lam33n2 ) ( * ( - 1 ) lam33n3 ) ( * Nl2main_i1 lam33n4 ) ( * Nl2main_i2 lam33n5 ) ( - ( - RFN1_main_i ) ) ) 0 ) ( = ( + ( * 1 lam33n0 ) ( * 1 lam33n1 ) ( * Nl2main_up1 lam33n4 ) ( * Nl2main_up2 lam33n5 ) ( - ( - RFN1_main_up ) ) ) 0 ) ) ( and ( >= lam34n0 0 ) ( >= lam34n1 0 ) ( >= lam34n2 0 ) ( >= lam34n3 0 ) ( >= lam34n4 0 ) ( >= lam34n5 0 ) ( > ( + ( * ( - 9 ) lam34n2 ) ( * 2 lam34n3 ) ( * Nl2CT1 lam34n4 ) ( * Nl2CT2 lam34n5 ) ( - 1 ( + ( - ( + RFN1_CT ( * RFN1_main_i ( - 1 ) ) ) RFN1_CT ) 1 ) ) ) 0 ) ( = ( + ( * ( - 1 ) lam34n0 ) ( * 1 lam34n2 ) ( * ( - 1 ) lam34n3 ) ( * Nl2main_i1 lam34n4 ) ( * Nl2main_i2 lam34n5 ) ( - ( - ( + 0 ( * RFN1_main_i 1 ) ) RFN1_main_i ) ) ) 0 ) ( = ( + ( * 1 lam34n0 ) ( * 1 lam34n1 ) ( * Nl2main_up1 lam34n4 ) ( * Nl2main_up2 lam34n5 ) ( - ( - ( + 0 RFN1_main_up ) RFN1_main_up ) ) ) 0 ) ) ) ( and ( and ( >= lam37n0 0 ) ( >= lam37n1 0 ) ( >= lam37n3 0 ) ( >= lam37n4 0 ) ( > ( + ( * 11 lam37n1 ) ( * ( - 1 ) lam37n2 ) ( * Nl2CT1 lam37n3 ) ( * Nl2CT2 lam37n4 ) ( - 1 ( - RFN1_CT ) ) ) 0 ) ( = ( + ( * ( - 1 ) lam37n0 ) ( * ( - 1 ) lam37n1 ) ( * Nl2main_i1 lam37n3 ) ( * Nl2main_i2 lam37n4 ) ( - ( - RFN1_main_i ) ) ) 0 ) ( = ( + ( * 1 lam37n0 ) ( * 1 lam37n2 ) ( * Nl2main_up1 lam37n3 ) ( * Nl2main_up2 lam37n4 ) ( - ( - RFN1_main_up ) ) ) 0 ) ) ( and ( >= lam38n0 0 ) ( >= lam38n1 0 ) ( >= lam38n3 0 ) ( >= lam38n4 0 ) ( > ( + ( * 11 lam38n1 ) ( * ( - 1 ) lam38n2 ) ( * Nl2CT1 lam38n3 ) ( * Nl2CT2 lam38n4 ) ( - 1 ( + ( - ( + RFN1_CT ( * RFN1_main_i 1 ) ) RFN1_CT ) 1 ) ) ) 0 ) ( = ( + ( * ( - 1 ) lam38n0 ) ( * ( - 1 ) lam38n1 ) ( * Nl2main_i1 lam38n3 ) ( * Nl2main_i2 lam38n4 ) ( - ( - ( + 0 ( * RFN1_main_i 1 ) ) RFN1_main_i ) ) ) 0 ) ( = ( + ( * 1 lam38n0 ) ( * 1 lam38n2 ) ( * Nl2main_up1 lam38n3 ) ( * Nl2main_up2 lam38n4 ) ( - ( - ( + 0 RFN1_main_up ) RFN1_main_up ) ) ) 0 ) ) ) ( and ( and ( >= lam41n0 0 ) ( >= lam41n1 0 ) ( >= lam41n2 0 ) ( >= lam41n3 0 ) ( >= lam41n4 0 ) ( > ( + ( * 11 lam41n2 ) ( * Nl2CT1 lam41n3 ) ( * Nl2CT2 lam41n4 ) ( - 1 ( - RFN1_CT ) ) ) 0 ) ( = ( + ( * ( - 1 ) lam41n0 ) ( * ( - 1 ) lam41n2 ) ( * Nl2main_i1 lam41n3 ) ( * Nl2main_i2 lam41n4 ) ( - ( - RFN1_main_i ) ) ) 0 ) ( = ( + ( * 1 lam41n0 ) ( * 1 lam41n1 ) ( * Nl2main_up1 lam41n3 ) ( * Nl2main_up2 lam41n4 ) ( - ( - RFN1_main_up ) ) ) 0 ) ) ( and ( >= lam42n0 0 ) ( >= lam42n1 0 ) ( >= lam42n2 0 ) ( >= lam42n3 0 ) ( >= lam42n4 0 ) ( > ( + ( * 11 lam42n2 ) ( * Nl2CT1 lam42n3 ) ( * Nl2CT2 lam42n4 ) ( - 1 ( + ( - ( + RFN1_CT ( * RFN1_main_i ( - 1 ) ) ) RFN1_CT ) 1 ) ) ) 0 ) ( = ( + ( * ( - 1 ) lam42n0 ) ( * ( - 1 ) lam42n2 ) ( * Nl2main_i1 lam42n3 ) ( * Nl2main_i2 lam42n4 ) ( - ( - ( + 0 ( * RFN1_main_i 1 ) ) RFN1_main_i ) ) ) 0 ) ( = ( + ( * 1 lam42n0 ) ( * 1 lam42n1 ) ( * Nl2main_up1 lam42n3 ) ( * Nl2main_up2 lam42n4 ) ( - ( - ( + 0 RFN1_main_up ) RFN1_main_up ) ) ) 0 ) ) ) ) ) ( or ( and ( >= lam20n0 0 ) ( >= lam20n1 0 ) ( >= lam20n3 0 ) ( >= lam20n4 0 ) ( > ( + ( * ( - 1 ) lam20n1 ) ( * ( - 1 ) lam20n2 ) ( * Nl2CT1 lam20n3 ) ( * Nl2CT2 lam20n4 ) ( - 1 ) ) 0 ) ( = ( + ( * ( - 1 ) lam20n0 ) ( * 1 lam20n2 ) ( * Nl2main_i1 lam20n3 ) ( * Nl2main_i2 lam20n4 ) ) 0 ) ( = ( + ( * 1 lam20n0 ) ( * 1 lam20n1 ) ( * Nl2main_up1 lam20n3 ) ( * Nl2main_up2 lam20n4 ) ) 0 ) ) ( and ( >= lam24n0 0 ) ( >= lam24n1 0 ) ( >= lam24n3 0 ) ( >= lam24n4 0 ) ( > ( + ( * ( - 1 ) lam24n1 ) ( * ( - 10 ) lam24n2 ) ( * Nl2CT1 lam24n3 ) ( * Nl2CT2 lam24n4 ) ( - 1 ) ) 0 ) ( = ( + ( * ( - 1 ) lam24n0 ) ( * 1 lam24n2 ) ( * Nl2main_i1 lam24n3 ) ( * Nl2main_i2 lam24n4 ) ) 0 ) ( = ( + ( * 1 lam24n0 ) ( * 1 lam24n1 ) ( * Nl2main_up1 lam24n3 ) ( * Nl2main_up2 lam24n4 ) ) 0 ) ) ( and ( >= lam28n0 0 ) ( >= lam28n1 0 ) ( >= lam28n2 0 ) ( >= lam28n4 0 ) ( >= lam28n5 0 ) ( > ( + ( * ( - 9 ) lam28n1 ) ( * 2 lam28n2 ) ( * ( - 1 ) lam28n3 ) ( * Nl2CT1 lam28n4 ) ( * Nl2CT2 lam28n5 ) ( - 1 ) ) 0 ) ( = ( + ( * ( - 1 ) lam28n0 ) ( * 1 lam28n1 ) ( * ( - 1 ) lam28n2 ) ( * Nl2main_i1 lam28n4 ) ( * Nl2main_i2 lam28n5 ) ) 0 ) ( = ( + ( * 1 lam28n0 ) ( * 1 lam28n3 ) ( * Nl2main_up1 lam28n4 ) ( * Nl2main_up2 lam28n5 ) ) 0 ) ) ( and ( >= lam32n0 0 ) ( >= lam32n1 0 ) ( >= lam32n2 0 ) ( >= lam32n3 0 ) ( >= lam32n4 0 ) ( >= lam32n5 0 ) ( > ( + ( * ( - 9 ) lam32n2 ) ( * 2 lam32n3 ) ( * Nl2CT1 lam32n4 ) ( * Nl2CT2 lam32n5 ) ( - 1 ) ) 0 ) ( = ( + ( * ( - 1 ) lam32n0 ) ( * 1 lam32n2 ) ( * ( - 1 ) lam32n3 ) ( * Nl2main_i1 lam32n4 ) ( * Nl2main_i2 lam32n5 ) ) 0 ) ( = ( + ( * 1 lam32n0 ) ( * 1 lam32n1 ) ( * Nl2main_up1 lam32n4 ) ( * Nl2main_up2 lam32n5 ) ) 0 ) ) ( and ( >= lam36n0 0 ) ( >= lam36n1 0 ) ( >= lam36n3 0 ) ( >= lam36n4 0 ) ( > ( + ( * 11 lam36n1 ) ( * ( - 1 ) lam36n2 ) ( * Nl2CT1 lam36n3 ) ( * Nl2CT2 lam36n4 ) ( - 1 ) ) 0 ) ( = ( + ( * ( - 1 ) lam36n0 ) ( * ( - 1 ) lam36n1 ) ( * Nl2main_i1 lam36n3 ) ( * Nl2main_i2 lam36n4 ) ) 0 ) ( = ( + ( * 1 lam36n0 ) ( * 1 lam36n2 ) ( * Nl2main_up1 lam36n3 ) ( * Nl2main_up2 lam36n4 ) ) 0 ) ) ( and ( >= lam40n0 0 ) ( >= lam40n1 0 ) ( >= lam40n2 0 ) ( >= lam40n3 0 ) ( >= lam40n4 0 ) ( > ( + ( * 11 lam40n2 ) ( * Nl2CT1 lam40n3 ) ( * Nl2CT2 lam40n4 ) ( - 1 ) ) 0 ) ( = ( + ( * ( - 1 ) lam40n0 ) ( * ( - 1 ) lam40n2 ) ( * Nl2main_i1 lam40n3 ) ( * Nl2main_i2 lam40n4 ) ) 0 ) ( = ( + ( * 1 lam40n0 ) ( * 1 lam40n1 ) ( * Nl2main_up1 lam40n3 ) ( * Nl2main_up2 lam40n4 ) ) 0 ) ) ) ))
(check-sat)
(exit)
